&input fildyn='MgB2.dyn', zasr='simple', flfrc='MgB2666.fc' /
