 &bands
    prefix='pb',
    outdir='./',
    filband = 'pbbands_noncol.dat'
    lsym=.true.,
 /
